(set-logic QF_UF)
(declare-fun circuit () Bool)
(declare-fun grn () Bool)
(declare-fun org () Bool)
(declare-fun rd1 () Bool)
(declare-fun rd2 () Bool)
(assert (or (not org) (and (not rd1) (not rd2))))
(assert org)
(assert (not (and (not rd1) (not rd2))))
(check-sat)
(exit)
